c n orig vars 74
p cnf 76 150
1 2 -75 0
3 4 -75 0
5 6 -75 0
7 8 -75 0
9 10 -75 0
11 12 -75 0
13 14 -75 0
15 16 -75 0
17 18 -75 0
19 20 -75 0
21 22 -75 0
23 24 -75 0
25 26 -75 0
27 28 -75 0
29 30 -75 0
31 32 -75 0
33 40 47 54 61 68 -76 0
34 41 48 55 62 69 -76 0
35 42 49 56 63 70 -76 0
36 43 50 57 64 71 -76 0
37 44 51 58 65 72 -76 0
38 45 52 59 66 73 -76 0
39 46 53 60 67 74 -76 0
-33 -34 -76 0
-33 -35 -76 0
-33 -36 -76 0
-33 -37 -76 0
-33 -38 -76 0
-33 -39 -76 0
-34 -35 -76 0
-34 -36 -76 0
-34 -37 -76 0
-34 -38 -76 0
-34 -39 -76 0
-35 -36 -76 0
-35 -37 -76 0
-35 -38 -76 0
-35 -39 -76 0
-36 -37 -76 0
-36 -38 -76 0
-36 -39 -76 0
-37 -38 -76 0
-37 -39 -76 0
-38 -39 -76 0
-40 -41 -76 0
-40 -42 -76 0
-40 -43 -76 0
-40 -44 -76 0
-40 -45 -76 0
-40 -46 -76 0
-41 -42 -76 0
-41 -43 -76 0
-41 -44 -76 0
-41 -45 -76 0
-41 -46 -76 0
-42 -43 -76 0
-42 -44 -76 0
-42 -45 -76 0
-42 -46 -76 0
-43 -44 -76 0
-43 -45 -76 0
-43 -46 -76 0
-44 -45 -76 0
-44 -46 -76 0
-45 -46 -76 0
-47 -48 -76 0
-47 -49 -76 0
-47 -50 -76 0
-47 -51 -76 0
-47 -52 -76 0
-47 -53 -76 0
-48 -49 -76 0
-48 -50 -76 0
-48 -51 -76 0
-48 -52 -76 0
-48 -53 -76 0
-49 -50 -76 0
-49 -51 -76 0
-49 -52 -76 0
-49 -53 -76 0
-50 -51 -76 0
-50 -52 -76 0
-50 -53 -76 0
-51 -52 -76 0
-51 -53 -76 0
-52 -53 -76 0
-54 -55 -76 0
-54 -56 -76 0
-54 -57 -76 0
-54 -58 -76 0
-54 -59 -76 0
-54 -60 -76 0
-55 -56 -76 0
-55 -57 -76 0
-55 -58 -76 0
-55 -59 -76 0
-55 -60 -76 0
-56 -57 -76 0
-56 -58 -76 0
-56 -59 -76 0
-56 -60 -76 0
-57 -58 -76 0
-57 -59 -76 0
-57 -60 -76 0
-58 -59 -76 0
-58 -60 -76 0
-59 -60 -76 0
-61 -62 -76 0
-61 -63 -76 0
-61 -64 -76 0
-61 -65 -76 0
-61 -66 -76 0
-61 -67 -76 0
-62 -63 -76 0
-62 -64 -76 0
-62 -65 -76 0
-62 -66 -76 0
-62 -67 -76 0
-63 -64 -76 0
-63 -65 -76 0
-63 -66 -76 0
-63 -67 -76 0
-64 -65 -76 0
-64 -66 -76 0
-64 -67 -76 0
-65 -66 -76 0
-65 -67 -76 0
-66 -67 -76 0
-68 -69 -76 0
-68 -70 -76 0
-68 -71 -76 0
-68 -72 -76 0
-68 -73 -76 0
-68 -74 -76 0
-69 -70 -76 0
-69 -71 -76 0
-69 -72 -76 0
-69 -73 -76 0
-69 -74 -76 0
-70 -71 -76 0
-70 -72 -76 0
-70 -73 -76 0
-70 -74 -76 0
-71 -72 -76 0
-71 -73 -76 0
-71 -74 -76 0
-72 -73 -76 0
-72 -74 -76 0
-73 -74 -76 0
75 76 0
